NAME : local_1
TYPE : ATSP
DIMENSION : 4
EDGE_WEIGHT_TYPE : EXPLICIT
EDGE_WEIGHT_FORMAT : FULL_MATRIX
EDGE_WEIGHT_SECTION
0 10000000 666 789 
0 0 10000000 10000000 
0 10000000 0 887 
0 10000000 10000000 0 
EOF